(declare-fun var0 () String)
(assert (RegexIn var0 (RegexConcat (RegexPlus (RegexStar (RegexStar (RegexUnion (RegexUnion (RegexPlus (RegexUnion (RegexPlus (RegexStar (RegexStar (RegexPlus (RegexPlus (RegexStar (RegexUnion (Str2Reg "GGG") (Str2Reg "HH")))))))) (RegexStar (RegexPlus (RegexStar (RegexPlus (RegexStar (RegexUnion (RegexPlus (Str2Reg "I")) (RegexPlus (Str2Reg "J")))))))))) (RegexPlus (RegexPlus (RegexPlus (RegexPlus (RegexStar (RegexStar (RegexPlus (RegexUnion (RegexStar (Str2Reg "KK")) (RegexStar (Str2Reg "LL"))))))))))) (RegexPlus (RegexUnion (RegexPlus (RegexPlus (RegexStar (RegexUnion (RegexUnion (RegexStar (RegexStar (RegexUnion (Str2Reg "MM") (Str2Reg "NNN")))) (RegexUnion (RegexStar (RegexPlus (Str2Reg "OOO"))) (RegexPlus (RegexStar (Str2Reg "P"))))) (RegexStar (RegexUnion (RegexStar (RegexUnion (Str2Reg "QQ") (Str2Reg "R"))) (RegexUnion (RegexPlus (Str2Reg "S")) (RegexPlus (Str2Reg "TT"))))))))) (RegexPlus (RegexPlus (RegexPlus (RegexPlus (RegexPlus (RegexStar (RegexStar (RegexUnion (Str2Reg "UU") (Str2Reg "VV"))))))))))))))) (RegexPlus (RegexUnion (RegexStar (RegexUnion (RegexStar (RegexStar (RegexStar (RegexStar (RegexUnion (RegexUnion (RegexUnion (RegexUnion (RegexStar (RegexUnion (Str2Reg "0") (Str2Reg "11"))) (RegexUnion (RegexPlus (Str2Reg "2")) (RegexPlus (Str2Reg "333")))) (RegexUnion (RegexUnion (RegexStar (Str2Reg "444")) (RegexPlus (Str2Reg "555"))) (RegexPlus (RegexPlus (Str2Reg "6"))))) (RegexPlus (RegexPlus (RegexStar (RegexPlus (Str2Reg "777")))))) (RegexUnion (RegexUnion (RegexStar (RegexStar (RegexUnion (Str2Reg "8") (Str2Reg "99")))) (RegexPlus (RegexPlus (RegexStar (Str2Reg "a"))))) (RegexStar (RegexUnion (RegexStar (RegexUnion (Str2Reg "b") (Str2Reg "c"))) (RegexStar (RegexStar (Str2Reg "dd"))))))))))) (RegexPlus (RegexStar (RegexUnion (RegexStar (RegexStar (RegexStar (RegexUnion (RegexPlus (RegexUnion (RegexPlus (Str2Reg "ee")) (RegexPlus (Str2Reg "f")))) (RegexUnion (RegexUnion (RegexUnion (Str2Reg "gg") (Str2Reg "hh")) (RegexStar (Str2Reg "i"))) (RegexPlus (RegexPlus (Str2Reg "jj")))))))) (RegexPlus (RegexStar (RegexPlus (RegexPlus (RegexUnion (RegexUnion (RegexStar (Str2Reg "kk")) (RegexStar (Str2Reg "lll"))) (RegexPlus (RegexPlus (Str2Reg "mm"))))))))))))) (RegexPlus (RegexStar (RegexUnion (RegexStar (RegexStar (RegexPlus (RegexPlus (RegexUnion (RegexStar (RegexStar (RegexUnion (RegexStar (Str2Reg "n")) (RegexStar (Str2Reg "o"))))) (RegexUnion (RegexUnion (RegexPlus (RegexPlus (Str2Reg "pp"))) (RegexUnion (RegexStar (Str2Reg "qq")) (RegexUnion (Str2Reg "r") (Str2Reg "ss")))) (RegexPlus (RegexPlus (RegexUnion (Str2Reg "tt") (Str2Reg "uuu")))))))))) (RegexPlus (RegexStar (RegexUnion (RegexStar (RegexStar (RegexUnion (RegexUnion (RegexStar (RegexStar (Str2Reg "v"))) (RegexUnion (RegexStar (Str2Reg "www")) (RegexUnion (Str2Reg "xxx") (Str2Reg "y")))) (RegexUnion (RegexStar (RegexUnion (Str2Reg "zz") (Str2Reg "A"))) (RegexUnion (RegexPlus (Str2Reg "BBB")) (RegexUnion (Str2Reg "CCC") (Str2Reg "DDD"))))))) (RegexStar (RegexStar (RegexPlus (RegexStar (RegexUnion (RegexStar (Str2Reg "EE")) (RegexStar (Str2Reg "FFF"))))))))))))))))))
(assert (<= 15 (Length var0)))
(check-sat)